proyfinal/src/viki/013/andrea/andrea-localstore/experimentInOfficeAgust.take6/worker_8/9744a45c-2685-40d8-9faa-179a01b7f571.als.cnf.out
Reading from standard input... Use '--help' for help.
============================[ Problem Statistics ]=============================
|                                                                             |
|  Number of variables:         87638                                         |
|  Number of clauses:          161767                                         |
|  Parse time:                   0.04 s                                       |
|                                                                             |
============================[ Search Statistics ]==============================
| Conflicts |          ORIGINAL         |          LEARNT          | Progress |
|           |    Vars  Clauses Literals |    Limit  Clauses Lit/Cl |          |
===============================================================================
|       100 |   63968   110880   276947 |    40656      100     17 | 27.009 % |
|       250 |   63968   110880   276947 |    44721      250     29 | 27.009 % |
|       475 |   63968   110880   276947 |    49193      475     47 | 27.009 % |
|       812 |   63968   110880   276947 |    54113      812     55 | 27.009 % |
|      1318 |   63968   110880   276947 |    59524     1318     50 | 27.009 % |
|      2077 |   63968   110880   276947 |    65476     2077     58 | 27.009 % |
|      3216 |   63887   110548   276180 |    72024     3211     66 | 27.101 % |
|      4924 |   63887   110548   276180 |    79227     4919     67 | 27.101 % |
|      7486 |   63887   110548   276180 |    87149     7481     76 | 27.101 % |
|     11330 |   63861   110405   275868 |    95864    10755     78 | 27.131 % |
|     17096 |   63856   110386   275818 |   105451    16442     84 | 27.137 % |
===============================================================================
restarts              : 63
conflicts             : 17763          (7153 /sec)
decisions             : 60096          (0.00 % random) (24201 /sec)
propagations          : 23839866       (9600496 /sec)
conflict literals     : 1489294        (51.32 % deleted)
Memory used           : 38.14 MB
CPU time              : 2.48319 s

INDETERMINATE
